6188.0
0 0 0 0 0 0 1 0 0 0 0 0 1 0 0 0 0 0 0 0 0 1 1 1 0 0 1 1 1 0 
12 21 6 23 23 22 26 21 27 27 23 23 26 26 12 6 21 21 12 7 7 26 22 22 22 23 27 6 27 27 27 23 23 23 22 22 7 12 21 6 27 12 28 23 28 26 26 22 26 6 21 7 26 6 6 6 21 22 23 23 27 27 7 28 27 28 28 27 28 28 